! OPT PBE0 D3BJ def2-TZVP TightSCF VeryTightSCF SlowConv SOSCF 

* xyz 0 1 
N -0.0044384516 1.2381688167 -0.6577412120
C 1.2120478551 0.6478792528 -0.3273497489
C 2.3166972620 1.4297027641 -0.0077599010
C 3.5360053719 0.8418927822 0.2887947563
C 3.6589747779 -0.5381971645 0.3043039648
C 2.5549277273 -1.3252875145 0.0112216681
C 1.3427231430 -0.7430424283 -0.3271129291
S -0.0000190014 -1.7488157392 -0.8531166077
C -1.3461520497 -0.7469480317 -0.3283377750
C -1.2194945332 0.6443434985 -0.3284209695
C -2.3266836679 1.4229536236 -0.0097706625
C -3.5445529985 0.8316076669 0.2856666860
C -3.6635534994 -0.5488325768 0.3009973574
C -2.5569707546 -1.3327147535 0.0088821887
H -0.0059372331 2.2426677286 -0.5832656027
H 2.2164561279 2.5105890877 -0.0005715038
H 4.3881290870 1.4694368999 0.5208347688
H -2.2295718626 2.5041231410 -0.0024479231
H -4.3986997075 1.4566687576 0.5169690193
H -4.6093020758 -1.0173775978 0.5430239732
H -2.6313729883 -2.4141184101 0.0232216052
C 4.9327745412 -1.1190880001 0.3043039648
C 5.0666082025 -2.5126763722 0.3043039648
C 3.9266421003 -3.3253739089 0.3043039648
C 2.6528423370 -2.7444830733 0.3043039648
H 5.8121769629 -0.4921499004 0.3043039648
H 6.0492537342 -2.9607921597 0.3043039648
H 4.0298852104 -4.4004277960 0.3043039648
H 1.7734399153 -3.3714211729 0.3043039648
*