! OPT PBE0 D3BJ def2-TZVP TightSCF VeryTightSCF SlowConv SOSCF 

* xyz 0 1 
N -0.0044384516 1.2381688167 -0.6577412120
C 1.2120478551 0.6478792528 -0.3273497489
C 2.3166972620 1.4297027641 -0.0077599010
C 3.5360053719 0.8418927822 0.2887947563
C 3.6589747779 -0.5381971645 0.3043039648
C 2.5549277273 -1.3252875145 0.0112216681
C 1.3427231430 -0.7430424283 -0.3271129291
S -0.0000190014 -1.7488157392 -0.8531166077
C -1.3461520497 -0.7469480317 -0.3283377750
C -1.2194945332 0.6443434985 -0.3284209695
C -2.3266836679 1.4229536236 -0.0097706625
C -3.5445529985 0.8316076669 0.2856666860
C -3.6635534994 -0.5488325768 0.3009973574
C -2.5569707546 -1.3327147535 0.0088821887
H -0.0059372331 2.2426677286 -0.5832656027
H 4.6058588103 -1.0039904938 0.5472017525
H 2.6324586614 -2.4064693094 0.0256570950
H -2.2295718626 2.5041231410 -0.0024479231
H -4.3986997075 1.4566687576 0.5169690193
H -4.6093020758 -1.0173775978 0.5430239732
H -2.6313729883 -2.4141184101 0.0232216052
C 2.2126532654 2.8258312849 -0.0077599010
C 3.3697140330 3.6140002896 -0.0077599010
C 4.6308187974 3.0060407733 -0.0077599010
C 4.7348627940 1.6099122525 -0.0077599010
H 1.2398010186 3.2948286260 -0.0077599010
H 3.2894515214 4.6910137200 -0.0077599010
H 5.5234085325 3.6140568626 -0.0077599010
H 5.7077150408 1.1409149114 -0.0077599010
*