! OPT PBE0 D3BJ def2-TZVP TightSCF 

* xyz 0 1 
C -3.2799885436 -0.1976299439 -0.6197779043
C -2.1390748314 -0.9384065599 -0.6197655864
C -0.8677529380 -0.3058945492 -0.6198056556
C 0.3294467335 -1.0088986399 -0.6198002604
C 1.5382493683 -0.3260666780 -0.6198517562
C 2.7987876002 -0.9797681480 -0.6198631171
C 3.9519099738 -0.2581705801 -0.6199221422
C 3.9102880090 1.1598897340 -0.6199665959
C 2.7221888231 1.8229577325 -0.6199558139
C 1.4933175258 1.1079545027 -0.6199023140
N 0.3528814541 1.7974291980 -0.6199012512
C -0.7989298422 1.1271040315 -0.6198584161
C -2.0156699044 1.8625876521 -0.6198670989
C -3.2147143727 1.2195109477 -0.6198286108
H 0.3202434563 -2.0951277920 -0.6197647987
H 2.8220489509 -2.0644642279 -0.6198300936
H 4.9106984434 -0.7631074350 -0.6199338822
H -1.9438771200 2.9433433725 -0.6199128040
H -4.1354999415 1.7915047802 -0.6198391577
C -2.2122232786 -2.3364942913 -0.6197655864
C -3.4595769943 -2.9721897435 -0.6197655864
C -4.6337822628 -2.2097974644 -0.6197655864
C -4.5606338157 -0.8117097330 -0.6197655864
H -1.3064077857 -2.9246254781 -0.6197655864
H -3.5160057964 -4.0507145649 -0.6197655864
H -5.5960265578 -2.7001910989 -0.6197655864
H -5.4664493085 -0.2235785462 -0.6197655864
C 2.7017991729 3.2228092468 -0.6199558139
C 3.9039113208 3.9403929590 -0.6199558139
C 5.1264131188 3.2581251569 -0.6199558139
C 5.1468027690 1.8582736425 -0.6199558139
H 1.7587263573 3.7491301228 -0.6199558139
H 3.8881821621 5.0202784129 -0.6199558139
H 6.0537567757 3.8116897348 -0.6199558139
H 6.0898755846 1.3319527666 -0.6199558139
*