! OPT PBE0 D3BJ def2-TZVP TightSCF 

* xyz 0 1 
C -3.2799885436 -0.1976299439 -0.6197779043
C -2.1390748314 -0.9384065599 -0.6197655864
C -0.8677529380 -0.3058945492 -0.6198056556
C 0.3294467335 -1.0088986399 -0.6198002604
C 1.5382493683 -0.3260666780 -0.6198517562
C 2.7987876002 -0.9797681480 -0.6198631171
C 3.9519099738 -0.2581705801 -0.6199221422
C 3.9102880090 1.1598897340 -0.6199665959
C 2.7221888231 1.8229577325 -0.6199558139
C 1.4933175258 1.1079545027 -0.6199023140
N 0.3528814541 1.7974291980 -0.6199012512
C -0.7989298422 1.1271040315 -0.6198584161
C -2.0156699044 1.8625876521 -0.6198670989
C -3.2147143727 1.2195109477 -0.6198286108
H 0.3202434563 -2.0951277920 -0.6197647987
H 4.8405052721 1.7164194367 -0.6200111852
H 2.6685357683 2.9047633106 -0.6199912841
H -1.9438771200 2.9433433725 -0.6199128040
H -4.1354999415 1.7915047802 -0.6198391577
C -2.2122232786 -2.3364942913 -0.6197655864
C -3.4595769943 -2.9721897435 -0.6197655864
C -4.6337822628 -2.2097974644 -0.6197655864
C -4.5606338157 -0.8117097330 -0.6197655864
H -1.3064077857 -2.9246254781 -0.6197655864
H -3.5160057964 -4.0507145649 -0.6197655864
H -5.5960265578 -2.7001910989 -0.6197655864
H -5.4664493085 -0.2235785462 -0.6197655864
C 5.1884652479 -0.9146239706 -0.6199221422
C 5.2382375724 -2.3137389465 -0.6199221422
C 4.0514546228 -3.0564005318 -0.6199221422
C 2.8148993486 -2.3999471413 -0.6199221422
H 6.1039835234 -0.3417136048 -0.6199221422
H 6.1921516411 -2.8201458477 -0.6199221422
H 4.0898504160 -4.1357177989 -0.6199221422
H 1.8993810731 -2.9728575072 -0.6199221422
*