! OPT PBE0 D3BJ def2-TZVP TightSCF VeryTightSCF SlowConv SOSCF 

* xyz 0 1 
O 0.0069143932 1.2559673876 0.0030329431
C -1.1931278586 0.6081513681 0.0030425253
C -1.3497317745 -0.7739984071 0.0021481131
S -0.0020934110 -1.8934428745 0.0008960645
C 1.3519267593 -0.7817288023 0.0009046621
C 1.2032312221 0.6012963186 0.0019540527
C 2.3223737368 1.4192038102 0.0019335216
C 3.5944077847 0.8727338257 0.0008614567
C 3.7522991922 -0.5043351312 -0.0002069559
C 2.6342921347 -1.3204373302 -0.0001786844
C -2.6351540071 -1.3053774676 0.0022621454
C -3.7484773287 -0.4829000594 0.0032492959
C -3.5827020068 0.8932452273 0.0041388912
C -2.3075720234 1.4324449090 0.0040284394
H 2.1682536203 2.4914255806 0.0027670352
H 4.4584042488 1.5257363040 0.0008568980
H -2.7544525876 -2.3833601906 0.0015584249
H -4.7395552893 -0.9191851621 0.0033198244
H -4.4429457876 1.5511835090 0.0049138346
H -2.1473378067 2.5037690190 0.0047028076
C 5.0325318422 -1.0709075995 -0.0002069559
C 5.1819820165 -2.4629078313 -0.0002069559
C 4.0511995408 -3.2883355948 -0.0002069559
C 2.7709668909 -2.7217631264 -0.0002069559
H 5.9048497520 -0.4341490391 -0.0002069559
H 6.1695900608 -2.8999780212 -0.0002069559
H 4.1664896753 -4.3621643451 -0.0002069559
H 1.8986489810 -3.3585216868 -0.0002069559
*