! OPT PBE0 D3BJ def2-TZVP TightSCF VeryTightSCF SlowConv SOSCF 

* xyz 0 1 
C -3.5414818724 -0.7154855514 -0.0003781936
C -2.3718154951 -1.4093784654 -0.0000537525
C -1.1313774474 -0.7173626685 -0.0005571497
N 0.0058888153 -1.4087505879 -0.0002368803
C 1.1397370562 -0.7117737632 -0.0007261093
C 2.3835863616 -1.3976408146 -0.0004155364
C 3.5498094991 -0.6979716267 -0.0008981626
C 3.5463130714 0.7224152968 -0.0017211593
C 2.3766439275 1.4163020915 -0.0020463645
C 1.1362097034 0.7242838467 -0.0015572864
N -0.0010551940 1.4156680635 -0.0018826166
C -1.1349010240 0.7186948458 -0.0013984149
C -2.3787460291 1.4045669692 -0.0017176898
C -3.5449700588 0.7049017152 -0.0012228973
H -2.3426623325 -2.4922555707 0.0005878457
H 2.3598153836 -2.4806501043 0.0002200057
H 4.4974273051 -1.2239279144 -0.0006551278
H 4.4913244468 1.2530356441 -0.0020945688
H 2.3474872238 2.4991756337 -0.0026752953
H -2.3549720039 2.4875716165 -0.0023630318
C -4.7521947272 -1.4184609302 -0.0003781936
C -5.9663456909 -0.7214405308 -0.0003781936
C -5.9697837999 0.6785552476 -0.0003781936
C -4.7590709451 1.3815306265 -0.0003781936
H -4.7495424717 -2.4984576735 -0.0003781936
H -6.9003241789 -1.2637358230 -0.0003781936
H -6.9064145433 1.2162566986 -0.0003781936
H -4.7617232006 2.4615273698 -0.0003781936
*