! OPT PBE0 D3BJ def2-TZVP TightSCF 

* xyz 0 1 
C 3.6559681037 -0.8362652507 0.0005188535
C 2.4325585476 -1.4389362883 0.0016360718
C 1.2429972704 -0.6662443865 -0.0000631058
C 0.0008721914 -1.2976397148 0.0011157948
C -1.2396866848 -0.6631714606 -0.0003133734
C -2.4311508141 -1.4329265754 0.0011536782
C -3.6530692728 -0.8272420762 -0.0002226417
C -3.7396835310 0.5772739887 -0.0031332978
C -2.6127472781 1.3617935753 -0.0046370015
C -1.3513595619 0.7555736054 -0.0032491209
S 0.0046904748 1.7885691492 -0.0052312161
C 1.3581724269 0.7522171633 -0.0029634830
C 2.6210564657 1.3553244325 -0.0040730708
C 3.7460558964 0.5680297460 -0.0023478853
H -0.0004944857 -2.3838468100 0.0033421080
H -2.3462916586 -2.5133820532 0.0033950703
H -4.5583109276 -1.4207502306 0.0009114227
H 2.7052462354 2.4357087810 -0.0062775479
H 4.7213683479 1.0399938735 -0.0032186429
C 2.3403990450 -2.8358996471 0.0016360718
C 3.5041250506 -3.6141937970 0.0016360718
C 4.7600105589 -2.9955245881 0.0016360718
C 4.8521700615 -1.5985612292 0.0016360718
H 1.3715730814 -3.3131587512 0.0016360718
H 3.4330305772 -4.6918512453 0.0016360718
H 5.6577420489 -3.5959229323 0.0016360718
H 5.8209960250 -1.1213021251 0.0016360718
C -2.7309628512 2.7567936034 -0.0046370015
C -3.9981761003 3.3519159280 -0.0046370015
C -5.1471737763 2.5520382246 -0.0046370015
C -5.0289582033 1.1570381965 -0.0046370015
H -1.8445932154 3.3738421175 -0.0046370015
H -4.0893709709 4.4280588068 -0.0046370015
H -6.1247382828 3.0111325893 -0.0046370015
H -5.9153278391 0.5399896825 -0.0046370015
*