! OPT PBE0 D3BJ def2-TZVP TightSCF 

* xyz 0 1 
O 0.9692011692 0.0599959863 0.0394801588
C 2.1879180596 0.0591337571 0.0411522250
C 2.9347908982 -1.2152738896 0.0415964949
C 4.3298195400 -1.3071906519 0.0426266851
S 5.3993525478 0.0568635432 0.0434419646
C 4.3317534565 1.4224317735 0.0421128131
C 2.9365951513 1.3324841929 0.0411237755
C 2.1897597875 2.5161090568 0.0400799120
C 2.8000141505 3.7488499216 0.0400231680
C 4.1926732815 3.8252665071 0.0410232522
C 4.9520046204 2.6767074766 0.0420558759
C 4.9482978236 -2.5623445967 0.0430470914
C 4.1873445402 -3.7098318115 0.0424262944
C 2.7947966231 -3.6314451072 0.0413792551
C 2.1862841573 -2.3978420569 0.0409690630
H 4.6860505096 4.7902855148 0.0409917827
H 6.0347862565 2.7355943355 0.0428308900
H 2.1976487943 -4.5350504976 0.0408980634
H 1.1080890799 -2.2959687333 0.0401792780
C 2.0239880959 4.9140896234 0.0400231680
C 0.6268478854 4.8246511971 0.0400231680
C 0.0057337294 3.5699730690 0.0400231680
C 0.7817597839 2.4047333672 0.0400231680
H 2.5031333020 5.8819841794 0.0400231680
H 0.0281992147 5.7235503956 0.0400231680
H -1.0720601473 3.5009777115 0.0400231680
H 0.3026145779 1.4368388112 0.0400231680
C 4.8109224349 -4.9632872791 0.0424262944
C 6.2082356597 -5.0499807150 0.0424262944
C 6.9819709898 -3.8832186832 0.0424262944
C 6.3583930952 -2.6297632155 0.0424262944
H 4.2140408944 -5.8633608465 0.0424262944
H 6.6892814641 -6.0169320757 0.0424262944
H 8.0598983347 -3.9500964765 0.0424262944
H 6.9552746357 -1.7296896481 0.0424262944
*