! OPT PBE0 D3BJ def2-TZVP TightSCF 

* xyz 0 1 
C 3.5795585174 -0.8691028994 0.0027880773
C 2.3421719542 -1.4375305507 0.0044570774
C 1.1746262181 -0.6270795695 0.0021714694
N 0.0036513197 -1.2514499164 0.0039871503
C -1.1670897435 -0.6266403371 0.0022208961
C -2.3349397303 -1.4366529569 0.0045561566
C -3.5721130305 -0.8677599565 0.0029396552
C -3.7077818036 0.5369927818 -0.0010774197
C -2.6118499854 1.3631551889 -0.0034581027
C -1.3320558870 0.7984383377 -0.0018616111
S 0.0042337548 1.8389035833 -0.0048688569
C 1.3401309209 0.7979363621 -0.0019165663
C 2.6201375436 1.3621727382 -0.0035714381
C 3.7157583318 0.5355980441 -0.0012385792
H -2.1885580314 -2.5093286522 0.0076174589
H -4.4592442385 -1.4883304560 0.0047225205
H -4.6988066011 0.9752085519 -0.0023153394
H -2.7310037537 2.4403281782 -0.0065406622
H 2.7396940841 2.4393018642 -0.0066589608
H 4.7069478279 0.9734389166 -0.0025258294
C 2.2121959811 -2.8314840099 0.0044570774
C 3.3544071020 -3.6410232341 0.0044570774
C 4.6265941958 -3.0566089990 0.0044570774
C 4.7565701689 -1.6626555398 0.0044570774
H 1.2307945087 -3.2823178484 0.0044570774
H 3.2541399227 -4.7163587597 0.0044570774
H 5.5077284891 -3.6811106862 0.0044570774
H 5.7379716413 -1.2118217013 0.0044570774
*