! OPT PBE0 D3BJ def2-TZVP TightSCF 

* xyz 0 1 
O 0.8379996657 0.2469361723 -0.0023578419
C 2.0551591251 0.1377930499 -0.0074119275
C 2.9310287791 1.3174727301 -0.0078329201
C 4.2644741146 1.2010123153 -0.0115477899
C 4.9251231186 -0.0878805524 -0.0147950881
N 6.2172394849 -0.0764541339 -0.0184496264
C 6.9828917708 -1.2132039303 -0.0215265734
C 8.3738598371 -1.0354639890 -0.0255393568
C 9.2306728421 -2.1123076776 -0.0288769950
C 8.7116708698 -3.4063389769 -0.0282552453
C 7.3468981018 -3.6126328894 -0.0243423370
C 6.4763289466 -2.5244735592 -0.0209586691
S 4.7784409695 -2.8515336863 -0.0160353041
C 4.0640783198 -1.2734096718 -0.0131392507
C 2.7171195951 -1.1569367136 -0.0094880294
H 2.4382856189 2.2827375392 -0.0052623704
H 4.9246362006 2.0604919069 -0.0122735621
H 9.3788713658 -4.2600000177 -0.0308426793
H 6.9447393293 -4.6196786805 -0.0238480311
H 2.0713750915 -2.0280771505 -0.0081584496
C 10.6152652791 -1.9051753932 -0.0288769950
C 11.1281796775 -0.6025170267 -0.0288769950
C 10.2565016387 0.4930090555 -0.0288769950
C 8.8719092017 0.2858767712 -0.0288769950
H 11.2877026233 -2.7502955138 -0.0288769950
H 12.1962938432 -0.4427292645 -0.0288769950
H 10.6521784603 1.4979169383 -0.0288769950
H 8.1994718575 1.1309968917 -0.0288769950
*