! OPT PBE0 D3BJ def2-TZVP TightSCF 

* xyz 0 1 
N -0.0044384516 1.2381688167 -0.6577412120
C 1.2120478551 0.6478792528 -0.3273497489
C 2.3166972620 1.4297027641 -0.0077599010
C 3.5360053719 0.8418927822 0.2887947563
C 3.6589747779 -0.5381971645 0.3043039648
C 2.5549277273 -1.3252875145 0.0112216681
C 1.3427231430 -0.7430424283 -0.3271129291
S -0.0000190014 -1.7488157392 -0.8531166077
C -1.3461520497 -0.7469480317 -0.3283377750
C -1.2194945332 0.6443434985 -0.3284209695
C -2.3266836679 1.4229536236 -0.0097706625
C -3.5445529985 0.8316076669 0.2856666860
C -3.6635534994 -0.5488325768 0.3009973574
C -2.5569707546 -1.3327147535 0.0088821887
H -0.0059372331 2.2426677286 -0.5832656027
H 4.6058588103 -1.0039904938 0.5472017525
H 2.6324586614 -2.4064693094 0.0256570950
H -4.6093020758 -1.0173775978 0.5430239732
H -2.6313729883 -2.4141184101 0.0232216052
C 4.6930661395 1.6300617869 0.2887947563
C 4.5890221429 3.0261903077 0.2887947563
C 3.3279173786 3.6341498240 0.2887947563
C 2.1708566109 2.8459808193 0.2887947563
H 5.6659183863 1.1610644458 0.2887947563
H 5.4816118780 3.6342063970 0.2887947563
H 3.2476548669 4.7111632543 0.2887947563
H 1.1980043641 3.3149781604 0.2887947563
C -4.7038272365 1.6165173694 0.2856666860
C -4.6037126133 3.0129331607 0.2856666860
C -3.3443237523 3.6244392495 0.2856666860
C -2.1850495143 2.8395295469 0.2856666860
H -5.6753557864 1.1447841009 0.2856666860
H -5.4980098826 3.6184349313 0.2856666860
H -3.2670924716 4.7016742885 0.2856666860
H -1.2135209643 3.3112628154 0.2856666860
*