! OPT PBE0 D3BJ def2-TZVP TightSCF 

* xyz 0 1 
C -3.2799885436 -0.1976299439 -0.6197779043
C -2.1390748314 -0.9384065599 -0.6197655864
C -0.8677529380 -0.3058945492 -0.6198056556
C 0.3294467335 -1.0088986399 -0.6198002604
C 1.5382493683 -0.3260666780 -0.6198517562
C 2.7987876002 -0.9797681480 -0.6198631171
C 3.9519099738 -0.2581705801 -0.6199221422
C 3.9102880090 1.1598897340 -0.6199665959
C 2.7221888231 1.8229577325 -0.6199558139
C 1.4933175258 1.1079545027 -0.6199023140
N 0.3528814541 1.7974291980 -0.6199012512
C -0.7989298422 1.1271040315 -0.6198584161
C -2.0156699044 1.8625876521 -0.6198670989
C -3.2147143727 1.2195109477 -0.6198286108
H -4.2470710032 -0.6864933983 -0.6197528393
H -2.1805728817 -2.0225667466 -0.6197274324
H 0.3202434563 -2.0951277920 -0.6197647987
H 2.8220489509 -2.0644642279 -0.6198300936
H 4.9106984434 -0.7631074350 -0.6199338822
H 4.8405052721 1.7164194367 -0.6200111852
H 2.6685357683 2.9047633106 -0.6199912841
C -4.4046380615 1.9571298297 -0.6198286108
C -4.3608032158 3.3564434136 -0.6198286108
C -3.1270446814 4.0181381157 -0.6198286108
C -1.9371209926 3.2805192338 -0.6198286108
H -5.3563946452 1.4466796309 -0.6198286108
H -5.2787443471 3.9254636940 -0.6198286108
H -3.0932292290 5.0976085948 -0.6198286108
H -0.9853644089 3.7909694325 -0.6198286108
*