! OPT PBE0 D3BJ def2-TZVP TightSCF 

* xyz 0 1 
C -3.5414818724 -0.7154855514 -0.0003781936
C -2.3718154951 -1.4093784654 -0.0000537525
C -1.1313774474 -0.7173626685 -0.0005571497
N 0.0058888153 -1.4087505879 -0.0002368803
C 1.1397370562 -0.7117737632 -0.0007261093
C 2.3835863616 -1.3976408146 -0.0004155364
C 3.5498094991 -0.6979716267 -0.0008981626
C 3.5463130714 0.7224152968 -0.0017211593
C 2.3766439275 1.4163020915 -0.0020463645
C 1.1362097034 0.7242838467 -0.0015572864
N -0.0010551940 1.4156680635 -0.0018826166
C -1.1349010240 0.7186948458 -0.0013984149
C -2.3787460291 1.4045669692 -0.0017176898
C -3.5449700588 0.7049017152 -0.0012228973
H 4.4913244468 1.2530356441 -0.0020945688
H 2.3474872238 2.4991756337 -0.0026752953
H -2.3549720039 2.4875716165 -0.0023630318
H -4.4925843421 1.2308615115 -0.0014680990
C -2.3883845700 -2.8092804140 -0.0000537525
C -3.6090197578 -3.4948821485 -0.0000537525
C -4.8130858706 -2.7805819344 -0.0000537525
C -4.7965167957 -1.3806799858 -0.0000537525
H -1.4595335687 -3.3603120078 -0.0000537525
H -3.6218016156 -4.5748065089 -0.0000537525
H -5.7547187298 -3.3094747011 -0.0000537525
H -5.7253677971 -0.8296483921 -0.0000537525
C 4.7738197807 -1.3775294465 -0.0008981626
C 4.7973105862 -2.7773323548 -0.0008981626
C 3.5967911101 -3.4975774433 -0.0008981626
C 2.3727808285 -2.8180196235 -0.0008981626
H 5.6999348051 -0.8219118068 -0.0008981626
H 5.7415470892 -3.3015626730 -0.0008981626
H 3.6149125887 -4.5774254011 -0.0008981626
H 1.4466658041 -3.3736372632 -0.0008981626
*