! OPT PBE0 D3BJ def2-TZVP TightSCF 

* xyz 0 1 
N 0.0238372151 1.4073080997 0.0006022994
C -1.1790470205 0.7290125737 0.0000964284
C -1.1582641273 -0.6688198452 -0.0002534238
O 0.0196806069 -1.3704865226 -0.0001013515
C 1.1997230096 -0.6723508651 0.0004217831
C 1.2246819261 0.7254100499 0.0007793378
C 2.4527735942 1.3705700515 0.0012988161
C 3.6356756510 0.6423836479 0.0014613731
C 3.5995388195 -0.7399348690 0.0011054218
C 2.3726225077 -1.3953372158 0.0005864626
C -2.3333233939 -1.3882879829 -0.0007671095
C -3.5582665477 -0.7292082098 -0.0009399376
C -3.5902710932 0.6532145970 -0.0005947222
C -2.4051962325 1.3778544987 -0.0000810202
H 0.0253416784 2.4105024397 0.0008522105
H 2.4776163177 2.4553809836 0.0015789320
H 2.3093461857 -2.4767532091 0.0002978089
H -2.2732959160 -2.4698889904 -0.0010292389
H -4.4770622373 -1.3017621023 -0.0013425910
H -4.5368096075 1.1796117938 -0.0007216765
H -2.4267709612 2.4627322275 0.0001894418
C 4.7932670170 -1.4713806909 0.0011054218
C 6.0235817791 -0.8033046575 0.0011054218
C 6.0601683435 0.5962171978 0.0011054218
C 4.8664401459 1.3276630196 0.0011054218
H 4.7650430959 -2.5510118363 0.0011054218
H 6.9444578172 -1.3675628629 0.0011054218
H 7.0092683028 1.1115901378 0.0011054218
H 4.8946640671 2.4072941651 0.0011054218
*