! OPT PBE0 D3BJ def2-TZVP TightSCF 

* xyz 0 1 
N 0.0238372151 1.4073080997 0.0006022994
C -1.1790470205 0.7290125737 0.0000964284
C -1.1582641273 -0.6688198452 -0.0002534238
O 0.0196806069 -1.3704865226 -0.0001013515
C 1.1997230096 -0.6723508651 0.0004217831
C 1.2246819261 0.7254100499 0.0007793378
C 2.4527735942 1.3705700515 0.0012988161
C 3.6356756510 0.6423836479 0.0014613731
C 3.5995388195 -0.7399348690 0.0011054218
C 2.3726225077 -1.3953372158 0.0005864626
C -2.3333233939 -1.3882879829 -0.0007671095
C -3.5582665477 -0.7292082098 -0.0009399376
C -3.5902710932 0.6532145970 -0.0005947222
C -2.4051962325 1.3778544987 -0.0000810202
H 0.0253416784 2.4105024397 0.0008522105
H 2.4776163177 2.4553809836 0.0015789320
H 4.5837811734 1.1659525156 0.0018704622
H -4.5368096075 1.1796117938 -0.0007216765
H -2.4267709612 2.4627322275 0.0001894418
C 2.3264626310 -2.7945760324 0.0005864626
C 3.5151590538 -3.5341710665 0.0005864626
C 4.7500153532 -2.8745272841 0.0005864626
C 4.7961752299 -1.4752884675 0.0005864626
H 1.3738592000 -3.3034440931 0.0005864626
H 3.4795500060 -4.6135838679 0.0005864626
H 5.6670097365 -3.4450720247 0.0005864626
H 5.7487786609 -0.9664204068 0.0005864626
C -4.7491765910 -1.4652335279 -0.0009399376
C -4.7072149892 -2.8646045381 -0.0009399376
C -3.4743433443 -3.5279502300 -0.0009399376
C -2.2834333011 -2.7919249119 -0.0009399376
H -5.7002490028 -0.9535097084 -0.0009399376
H -5.6259170226 -3.4323954978 -0.0009399376
H -3.4419729658 -4.6074650093 -0.0009399376
H -1.3323608892 -3.3036487314 -0.0009399376
*