! OPT PBE0 D3BJ def2-TZVP TightSCF VeryTightSCF SlowConv SOSCF 

* xyz 0 1 
O 0.9692011692 0.0599959863 0.0394801588
C 2.1879180596 0.0591337571 0.0411522250
C 2.9347908982 -1.2152738896 0.0415964949
C 4.3298195400 -1.3071906519 0.0426266851
S 5.3993525478 0.0568635432 0.0434419646
C 4.3317534565 1.4224317735 0.0421128131
C 2.9365951513 1.3324841929 0.0411237755
C 2.1897597875 2.5161090568 0.0400799120
C 2.8000141505 3.7488499216 0.0400231680
C 4.1926732815 3.8252665071 0.0410232522
C 4.9520046204 2.6767074766 0.0420558759
C 4.9482978236 -2.5623445967 0.0430470914
C 4.1873445402 -3.7098318115 0.0424262944
C 2.7947966231 -3.6314451072 0.0413792551
C 2.1862841573 -2.3978420569 0.0409690630
H 1.1114220176 2.4157545190 0.0393370079
H 2.2041464939 4.6532976688 0.0392176141
H 6.0309943395 -2.6227588260 0.0438566667
H 4.6793567022 -4.6755480826 0.0427606682
H 2.1976487943 -4.5350504976 0.0408980634
H 1.1080890799 -2.2959687333 0.0401792780
C 4.8180203865 5.0778402567 0.0410232522
C 6.2154546263 5.1625606524 0.0410232522
C 6.9875417611 3.9947072984 0.0410232522
C 6.3621946560 2.7421335488 0.0410232522
H 4.2224103112 5.9787557012 0.0410232522
H 6.6978652502 6.1288318306 0.0410232522
H 8.0655624603 4.0600630322 0.0410232522
H 6.9578047314 1.8412181043 0.0410232522
*