! OPT PBE0 D3BJ def2-TZVP TightSCF VeryTightSCF SlowConv SOSCF 

* xyz 1 1 
C 3.6559681037 -0.8362652507 0.0005188535
C 2.4325585476 -1.4389362883 0.0016360718
C 1.2429972704 -0.6662443865 -0.0000631058
C 0.0008721914 -1.2976397148 0.0011157948
C -1.2396866848 -0.6631714606 -0.0003133734
C -2.4311508141 -1.4329265754 0.0011536782
C -3.6530692728 -0.8272420762 -0.0002226417
C -3.7396835310 0.5772739887 -0.0031332978
C -2.6127472781 1.3617935753 -0.0046370015
C -1.3513595619 0.7555736054 -0.0032491209
S 0.0046904748 1.7885691492 -0.0052312161
C 1.3581724269 0.7522171633 -0.0029634830
C 2.6210564657 1.3553244325 -0.0040730708
C 3.7460558964 0.5680297460 -0.0023478853
H -0.0004944857 -2.3838468100 0.0033421080
H -2.3462916586 -2.5133820532 0.0033950703
H -4.5583109276 -1.4207502306 0.0009114227
H 2.7052462354 2.4357087810 -0.0062775479
H 4.7213683479 1.0399938735 -0.0032186429
C 4.8196941093 -1.6145594006 0.0005188535
C 4.7275346067 -3.0115227594 0.0005188535
C 3.4716490985 -3.6301919684 0.0005188535
C 2.3079230928 -2.8518978185 0.0005188535
H 5.7885200729 -1.1373002965 0.0005188535
H 5.6252660968 -3.6119211037 0.0005188535
H 3.4005546251 -4.7078494167 0.0005188535
H 1.3390971293 -3.3291569226 0.0005188535
C -5.0068967801 1.1723963133 -0.0031332978
C -5.1251123532 2.5673963414 -0.0031332978
C -3.9761146771 3.3672740448 -0.0031332978
C -2.7089014280 2.7721517202 -0.0031332978
H -5.8932664159 0.5553477993 -0.0031332978
H -6.1026768596 3.0264907061 -0.0031332978
H -4.0673095478 4.4434169236 -0.0031332978
H -1.8225317922 3.3892002343 -0.0031332978
*