! OPT PBE0 D3BJ def2-TZVP TightSCF VeryTightSCF SlowConv SOSCF 

* xyz 1 1 
C 3.5795585174 -0.8691028994 0.0027880773
C 2.3421719542 -1.4375305507 0.0044570774
C 1.1746262181 -0.6270795695 0.0021714694
N 0.0036513197 -1.2514499164 0.0039871503
C -1.1670897435 -0.6266403371 0.0022208961
C -2.3349397303 -1.4366529569 0.0045561566
C -3.5721130305 -0.8677599565 0.0029396552
C -3.7077818036 0.5369927818 -0.0010774197
C -2.6118499854 1.3631551889 -0.0034581027
C -1.3320558870 0.7984383377 -0.0018616111
S 0.0042337548 1.8389035833 -0.0048688569
C 1.3401309209 0.7979363621 -0.0019165663
C 2.6201375436 1.3621727382 -0.0035714381
C 3.7157583318 0.5355980441 -0.0012385792
H -2.1885580314 -2.5093286522 0.0076174589
H -4.4592442385 -1.4883304560 0.0047225205
H 2.7396940841 2.4393018642 -0.0066589608
H 4.7069478279 0.9734389166 -0.0025258294
C 4.7217696382 -1.6786421236 0.0027880773
C 4.5917936652 -3.0725955828 0.0027880773
C 3.3196065713 -3.6570098178 0.0027880773
C 2.1773954504 -2.8474705937 0.0027880773
H 5.7031711106 -1.2278082851 0.0027880773
H 5.4729279584 -3.6970972700 0.0027880773
H 3.2193393920 -4.7323453435 0.0027880773
H 1.1959939780 -3.2983044321 0.0027880773
C -4.9965899750 1.0837774719 -0.0010774197
C -5.1674646286 2.4733104340 -0.0010774197
C -4.0495311109 3.3160587060 -0.0010774197
C -2.7607229395 2.7692740159 -0.0010774197
H -5.8589958315 0.4336573764 -0.0010774197
H -6.1616880751 2.8951157664 -0.0010774197
H -4.1813487009 4.3879841339 -0.0010774197
H -1.8983170830 3.4193941114 -0.0010774197
*