! OPT PBE0 D3BJ def2-TZVP TightSCF VeryTightSCF SlowConv SOSCF 

* xyz 1 1 
C 3.5795585174 -0.8691028994 0.0027880773
C 2.3421719542 -1.4375305507 0.0044570774
C 1.1746262181 -0.6270795695 0.0021714694
N 0.0036513197 -1.2514499164 0.0039871503
C -1.1670897435 -0.6266403371 0.0022208961
C -2.3349397303 -1.4366529569 0.0045561566
C -3.5721130305 -0.8677599565 0.0029396552
C -3.7077818036 0.5369927818 -0.0010774197
C -2.6118499854 1.3631551889 -0.0034581027
C -1.3320558870 0.7984383377 -0.0018616111
S 0.0042337548 1.8389035833 -0.0048688569
C 1.3401309209 0.7979363621 -0.0019165663
C 2.6201375436 1.3621727382 -0.0035714381
C 3.7157583318 0.5355980441 -0.0012385792
H 2.1953879403 -2.5101503211 0.0075309418
H -4.6988066011 0.9752085519 -0.0023153394
H -2.7310037537 2.4403281782 -0.0065406622
H 2.7396940841 2.4393018642 -0.0066589608
C 4.7187795575 -1.6828445180 0.0027880773
C 5.9931109913 -1.1031209661 0.0027880773
C 6.1282213851 0.2903442044 0.0027880773
C 4.9890003450 1.1040858231 0.0027880773
H 4.6145515394 -2.7578033639 0.0027880773
H 6.8719386508 -1.7308645004 0.0027880773
H 7.1112770627 0.7375595159 0.0027880773
H 5.0932283631 2.1790446689 0.0027880773
C -2.2054877790 -2.8306551780 0.0045561566
C -3.3480031398 -3.6397649668 0.0045561566
C -4.6199704518 -3.0548725346 0.0045561566
C -4.7494224030 -1.6608703136 0.0045561566
H -1.2242558527 -3.2818579114 0.0045561566
H -3.2481402060 -4.7151381088 0.0045561566
H -5.5013394444 -3.6790429432 0.0045561566
H -5.7306543294 -1.2096675802 0.0045561566
*