! OPT PBE0 D3BJ def2-TZVP TightSCF 

* xyz 0 1 
S 0.0093228419 1.6144825724 -1.1631480854
C -1.3513963510 0.7113058471 -0.5131516574
C -1.3546777468 -0.6829612707 -0.5125742758
S 0.0018081331 -1.5930301128 -1.1618153232
C 1.3623829741 -0.6893124630 -0.5122691142
C 1.3656660535 0.7049539614 -0.5128550697
C 2.4767661136 1.3922571419 -0.0362701155
C 3.5931507088 0.6967831841 0.3978930407
C 3.5898833467 -0.6908438508 0.3984768820
C 2.4702448914 -1.3814269321 -0.0351090333
C -2.4658811596 -1.3698685234 -0.0356553868
C -3.5823605329 -0.6740314100 0.3976844325
C -3.5790977821 0.7135951395 0.3971022697
C -2.4593633395 1.4038170472 -0.0368126724
H 4.4551461462 -1.2391801417 0.7511357299
H 2.4480681958 -2.4647333482 -0.0147051818
H -2.4487861545 -2.4532678456 -0.0152438121
H -2.4371919775 2.4871397815 -0.0173108326
C 4.8283775436 1.3557328533 0.3978930407
C 4.8753238077 2.7549455063 0.3978930407
C 3.6870432369 3.4952084901 0.3978930407
C 2.4518164021 2.8362588209 0.3978930407
H 5.7450511268 0.7846728372 0.3978930407
H 5.8282130803 3.2632781083 0.3978930407
H 3.7232589264 4.5746011081 0.3978930407
H 1.5351428190 3.4073188370 0.3978930407
C -4.7898840781 1.4164440177 0.3971022697
C -6.0039622096 0.7192967660 0.3971022697
C -6.0072540452 -0.6806993639 0.3971022697
C -4.7964677493 -1.3835482422 0.3971022697
H -4.7873446620 2.4964410322 0.3971022697
H -6.9379973521 1.2614944721 0.3971022697
H -6.9438286038 -1.2184986724 0.3971022697
H -4.7990071653 -2.4635452567 0.3971022697
*